100
1000
200
0 0
-10 -38
-10 -38
-10 -38
-10 -38
-10 -38
-10 -38
-10 -38
-10 -38
-10 -38
-10 -38
-10 -38
-10 -38
-10 -38
-10 -38
-10 -38
-10 -38
-10 -38
-10 -38
-10 -38
-10 -38
40 35
40 35
40 35
40 35
40 35
40 35
40 35
40 35
40 35
40 35
40 35
40 35
40 35
40 35
40 35
40 35
40 35
40 35
40 35
40 35
-40 -13
-40 -13
-40 -13
-40 -13
-40 -13
-40 -13
-40 -13
-40 -13
-40 -13
-40 -13
-40 -13
-40 -13
-40 -13
-40 -13
-40 -13
-40 -13
-40 -13
-40 -13
-40 -13
-40 -13
-29 20
-29 20
-29 20
-29 20
-29 20
-29 20
-29 20
-29 20
-29 20
-29 20
-29 20
-29 20
-29 20
-29 20
-29 20
-29 20
-29 20
-29 20
-29 20
-29 20
-13 -10
-13 -10
-13 -10
-13 -10
-13 -10
-13 -10
-13 -10
-13 -10
-13 -10
-13 -10
-13 -10
-13 -10
-13 -10
-13 -10
-13 -10
-13 -10
-13 -10
-13 -10
-13 -10
-13 -10
18 -29
-30 36
-13 -7
30 -2
-36 18
-21 30
40 -9
8 10
11 -38
-17 -6
-5 40
-21 35
14 -10
14 13
-5 37
-13 18
27 -35
-33 8
-3 36
1 -35
18 -29
-30 36
-13 -7
30 -2
-36 18
-21 30
40 -9
8 10
11 -38
-17 -6
-5 40
-21 35
14 -10
14 13
-5 37
-13 18
27 -35
-33 8
-3 36
1 -35
18 -29
-30 36
-13 -7
30 -2
-36 18
-21 30
40 -9
8 10
11 -38
-17 -6
-5 40
-21 35
14 -10
14 13
-5 37
-13 18
27 -35
-33 8
-3 36
1 -35
18 -29
-30 36
-13 -7
30 -2
-36 18
-21 30
40 -9
8 10
11 -38
-17 -6
-5 40
-21 35
14 -10
14 13
-5 37
-13 18
27 -35
-33 8
-3 36
1 -35
18 -29
-30 36
-13 -7
30 -2
-36 18
-21 30
40 -9
8 10
11 -38
-17 -6
-5 40
-21 35
14 -10
14 13
-5 37
-13 18
27 -35
-33 8
-3 36
1 -35
0 0 
56
56
55
57
56
52
53
53
56
56
53
54
56
60
60
59
56
52
55
56
51
51
57
56
51
56
57
56
52
52
59
54
60
55
56
53
56
60
60
52
51
57
57
51
56
60
55
57
52
52
55
51
56
56
56
56
51
54
56
57
56
52
56
53
59
59
54
54
55
52
56
51
59
57
52
55
53
51
59
55
56
60
52
59
52
60
53
55
57
52
51
59
57
56
59
53
52
53
51
60
56
56
55
57
56
52
53
53
56
56
53
54
56
60
60
59
56
52
55
56
51
51
57
56
51
56
57
56
52
52
59
54
60
55
56
53
56
60
60
52
51
57
57
51
56
60
55
57
52
52
55
51
56
56
56
56
51
54
56
57
56
52
56
53
59
59
54
54
55
52
56
51
59
57
52
55
53
51
59
55
56
60
52
59
52
60
53
55
57
52
51
59
57
56
59
53
52
53
51
60
